/*********************************************
 * OPL 12.9.0.0 Data
 * Author: HP
 * Creation Date: 12 juin 2020 at 15:25:56
 *********************************************/
start = 0;
finish = 10;
tasks = {0,1,2,3,4,5,6,7,8,9,10};
adjList= {<0,1,0>,<1,2,7>,<1,3,7>,<1,4,7>,<2,5,7>,<2,6,7>,<3,7,6>,<4,7,3>,<5,7,5>,<6,7,3>,<7,8,4>,<7,9,4>,<8,10,4>,<9,10,3>};
nbteams=4;
teams = [0,1,2,2,0,1,0,3,0,1,0];